npieces = 10;	
nplayers = 50;	
duration = [5, 2, 2, 6, 3, 10, 7, 10, 10, 7];
rehearsal = [[0, 1, 1, 1, 0, 0, 1, 0, 1, 1], [1, 1, 1, 1, 1, 0, 1, 0, 0, 1], [0, 1, 1, 0, 1, 1, 0, 1, 0, 1], [1, 1, 1, 0, 1, 1, 1, 1, 1, 1], [0, 1, 1, 0, 1, 1, 0, 1, 0, 0], [1, 1, 0, 1, 1, 0, 0, 0, 0, 1], [0, 0, 1, 1, 0, 1, 0, 1, 1, 1], [1, 1, 1, 1, 0, 1, 1, 1, 1, 0], [1, 1, 1, 1, 1, 1, 0, 1, 0, 1], [0, 1, 0, 1, 1, 1, 1, 1, 0, 0], [1, 1, 0, 1, 0, 1, 1, 0, 1, 1], [1, 1, 1, 1, 0, 1, 0, 1, 0, 1], [1, 1, 0, 1, 1, 0, 0, 0, 1, 1], [0, 1, 1, 0, 0, 1, 1, 0, 0, 1], [1, 1, 1, 1, 0, 1, 1, 1, 1, 0], [0, 1, 0, 0, 0, 0, 1, 1, 1, 0], [0, 1, 1, 1, 1, 1, 1, 1, 1, 1], [1, 1, 0, 1, 1, 1, 1, 1, 1, 1], [1, 1, 1, 1, 1, 0, 1, 1, 1, 1], [1, 1, 0, 1, 0, 0, 0, 0, 0, 1], [0, 1, 1, 0, 1, 1, 1, 1, 1, 0], [1, 0, 1, 1, 1, 0, 1, 1, 1, 0], [1, 1, 1, 0, 1, 1, 0, 1, 1, 1], [1, 1, 0, 1, 0, 1, 0, 1, 0, 1], [1, 1, 1, 1, 0, 1, 0, 1, 1, 1], [0, 1, 1, 1, 0, 1, 1, 1, 1, 1], [1, 1, 1, 1, 0, 1, 0, 1, 1, 0], [0, 1, 0, 0, 0, 1, 0, 1, 0, 0], [1, 1, 1, 0, 0, 1, 0, 1, 1, 1], [1, 0, 1, 1, 0, 1, 1, 0, 1, 1], [0, 1, 1, 1, 1, 0, 1, 1, 1, 1], [1, 0, 0, 1, 0, 1, 0, 1, 0, 0], [1, 1, 1, 0, 1, 1, 0, 1, 1, 0], [1, 1, 1, 1, 0, 0, 1, 0, 1, 0], [1, 1, 1, 1, 1, 1, 1, 1, 1, 0], [0, 1, 0, 1, 1, 1, 1, 0, 1, 1], [1, 1, 1, 1, 1, 0, 0, 0, 1, 1], [1, 1, 1, 1, 1, 1, 0, 0, 1, 1], [1, 1, 1, 0, 1, 1, 1, 0, 1, 0], [1, 1, 1, 1, 1, 1, 1, 1, 1, 1], [0, 1, 1, 1, 1, 1, 0, 0, 0, 1], [1, 0, 1, 1, 0, 0, 1, 1, 1, 0], [1, 0, 0, 1, 0, 1, 1, 1, 1, 1], [1, 1, 1, 0, 1, 1, 1, 1, 1, 0], [1, 0, 1, 1, 1, 1, 1, 0, 1, 0], [0, 0, 0, 1, 1, 1, 1, 1, 1, 1], [1, 1, 1, 0, 0, 1, 1, 1, 0, 1], [1, 0, 0, 0, 1, 1, 0, 0, 1, 1], [1, 1, 1, 1, 1, 0, 1, 1, 1, 1], [1, 1, 0, 1, 1, 1, 1, 1, 1, 1]];